DIMACS_lns/graph-1000-980.col
p edge 1000 1830
e 1 501
e 1 356
e 1 352
e 1 755
e 1 224
e 3 196
e 3 673
e 3 298
e 3 860
e 3 969
e 3 429
e 4 159
e 4 540
e 4 545
e 4 619
e 5 129
e 5 29
e 5 24
e 5 277
e 5 474
e 7 508
e 7 470
e 7 243
e 7 99
e 7 819
e 7 767
e 8 801
e 8 46
e 8 808
e 9 842
e 9 334
e 9 571
e 11 375
e 11 602
e 11 187
e 11 778
e 11 266
e 11 433
e 11 658
e 12 840
e 12 824
e 12 387
e 12 336
e 12 464
e 12 70
e 14 538
e 14 776
e 14 213
e 15 408
e 15 246
e 15 192
e 15 290
e 15 676
e 16 622
e 16 163
e 16 469
e 16 500
e 16 198
e 16 627
e 16 101
e 16 768
e 21 313
e 21 139
e 21 709
e 21 603
e 22 34
e 22 779
e 22 551
e 22 953
e 22 496
e 22 322
e 22 574
e 23 940
e 23 411
e 23 274
e 24 809
e 24 204
e 25 715
e 25 641
e 25 79
e 25 179
e 25 974
e 26 642
e 26 416
e 26 444
e 26 837
e 28 768
e 28 235
e 28 72
e 28 561
e 28 491
e 29 84
e 29 673
e 29 623
e 29 131
e 31 487
e 31 801
e 31 798
e 31 833
e 31 198
e 32 975
e 32 507
e 32 410
e 32 291
e 32 989
e 33 340
e 33 476
e 33 96
e 34 65
e 34 135
e 34 140
e 34 833
e 34 184
e 35 415
e 35 425
e 35 551
e 35 139
e 35 375
e 35 803
e 35 133
e 36 496
e 36 772
e 36 94
e 36 306
e 37 942
e 37 460
e 37 344
e 37 245
e 38 168
e 38 774
e 38 863
e 40 86
e 40 404
e 40 596
e 40 528
e 40 600
e 41 99
e 41 781
e 41 610
e 41 745
e 41 556
e 41 749
e 42 473
e 42 70
e 42 779
e 42 732
e 43 106
e 43 889
e 43 343
e 43 338
e 43 962
e 43 884
e 44 629
e 44 770
e 44 281
e 44 704
e 45 184
e 45 263
e 45 507
e 45 435
e 46 506
e 46 768
e 47 93
e 47 332
e 47 679
e 47 662
e 47 716
e 47 964
e 48 149
e 48 252
e 48 549
e 49 949
e 49 54
e 49 427
e 49 404
e 49 531
e 49 775
e 49 920
e 50 476
e 50 310
e 50 736
e 51 997
e 51 246
e 51 529
e 51 744
e 51 932
e 51 108
e 51 792
e 51 569
e 52 760
e 52 704
e 52 421
e 52 981
e 52 868
e 53 576
e 53 621
e 53 54
e 53 677
e 53 364
e 54 894
e 55 549
e 55 841
e 55 466
e 58 595
e 58 316
e 58 391
e 58 233
e 58 173
e 59 143
e 59 996
e 59 506
e 59 796
e 60 75
e 60 505
e 60 355
e 60 870
e 61 986
e 61 395
e 61 779
e 61 802
e 62 577
e 62 865
e 62 561
e 62 603
e 62 739
e 62 953
e 63 354
e 63 581
e 63 329
e 63 501
e 63 302
e 64 614
e 64 248
e 64 913
e 65 99
e 65 503
e 65 198
e 66 251
e 66 92
e 66 580
e 67 253
e 67 349
e 67 113
e 67 770
e 68 338
e 68 394
e 68 514
e 68 168
e 68 720
e 69 510
e 69 520
e 69 161
e 69 470
e 69 183
e 69 718
e 70 873
e 70 259
e 70 814
e 70 704
e 72 318
e 72 505
e 72 643
e 72 769
e 72 388
e 72 841
e 74 738
e 74 755
e 74 760
e 74 938
e 74 606
e 74 453
e 75 281
e 75 153
e 75 915
e 75 673
e 77 465
e 77 111
e 77 976
e 77 623
e 78 436
e 78 408
e 78 483
e 78 344
e 78 774
e 79 992
e 79 547
e 79 587
e 79 712
e 79 170
e 79 222
e 81 459
e 81 241
e 81 535
e 81 345
e 81 120
e 82 907
e 82 745
e 82 423
e 82 868
e 82 996
e 82 255
e 82 246
e 82 645
e 83 540
e 83 343
e 83 822
e 83 853
e 83 973
e 83 336
e 84 308
e 84 355
e 85 391
e 85 172
e 85 549
e 85 241
e 85 608
e 85 395
e 86 606
e 86 494
e 86 712
e 86 530
e 87 720
e 87 738
e 87 370
e 87 270
e 87 671
e 87 333
e 89 507
e 89 586
e 89 233
e 89 991
e 92 258
e 92 754
e 92 319
e 92 529
e 92 812
e 93 558
e 93 556
e 93 540
e 94 160
e 94 634
e 94 926
e 94 388
e 94 278
e 95 920
e 95 128
e 95 556
e 96 493
e 96 307
e 97 754
e 97 818
e 97 415
e 97 106
e 99 851
e 99 271
e 99 901
e 99 295
e 99 845
e 100 923
e 100 192
e 100 831
e 101 692
e 101 145
e 103 925
e 103 498
e 103 775
e 104 672
e 104 650
e 104 952
e 104 194
e 105 638
e 105 283
e 105 968
e 105 615
e 105 653
e 105 698
e 106 180
e 106 464
e 106 897
e 106 142
e 106 347
e 106 778
e 106 781
e 107 492
e 107 755
e 107 510
e 108 229
e 108 341
e 108 528
e 111 657
e 111 369
e 111 399
e 113 720
e 113 431
e 113 470
e 113 500
e 113 610
e 115 984
e 115 722
e 115 349
e 115 853
e 115 237
e 115 777
e 119 354
e 119 707
e 119 815
e 119 521
e 120 198
e 120 913
e 120 188
e 120 320
e 120 234
e 121 203
e 121 395
e 121 426
e 121 587
e 122 529
e 122 504
e 122 979
e 122 473
e 122 986
e 122 624
e 122 992
e 123 124
e 123 570
e 123 709
e 124 864
e 124 941
e 125 387
e 125 977
e 125 541
e 126 348
e 126 433
e 126 329
e 127 937
e 127 704
e 127 799
e 128 693
e 128 478
e 128 641
e 129 831
e 129 813
e 129 764
e 129 528
e 129 316
e 130 626
e 130 962
e 130 348
e 131 215
e 131 612
e 132 871
e 132 719
e 132 154
e 132 769
e 133 810
e 133 280
e 133 474
e 133 367
e 133 842
e 135 812
e 135 169
e 136 936
e 136 437
e 136 941
e 137 896
e 137 752
e 137 358
e 137 632
e 137 661
e 139 569
e 139 808
e 139 969
e 140 212
e 140 416
e 140 939
e 141 701
e 141 316
e 141 739
e 141 967
e 141 236
e 141 470
e 142 152
e 142 556
e 142 230
e 143 557
e 143 255
e 144 670
e 144 601
e 144 364
e 144 265
e 144 419
e 145 234
e 145 499
e 145 464
e 147 771
e 147 673
e 147 711
e 149 672
e 149 931
e 149 458
e 149 926
e 149 738
e 149 507
e 149 330
e 149 365
e 149 901
e 150 236
e 150 248
e 150 943
e 150 428
e 150 598
e 151 736
e 151 943
e 151 452
e 151 811
e 151 387
e 151 645
e 152 755
e 152 642
e 152 955
e 152 932
e 153 409
e 153 457
e 153 248
e 154 828
e 154 624
e 154 521
e 154 831
e 156 465
e 156 895
e 156 611
e 156 298
e 157 235
e 157 938
e 157 341
e 159 623
e 159 387
e 159 516
e 159 759
e 160 948
e 160 883
e 160 402
e 161 188
e 161 825
e 161 235
e 161 717
e 162 650
e 162 731
e 162 181
e 162 624
e 163 962
e 163 655
e 163 210
e 163 920
e 165 400
e 165 860
e 165 671
e 165 772
e 165 242
e 165 188
e 168 685
e 169 826
e 169 452
e 170 829
e 170 471
e 170 492
e 172 391
e 172 436
e 172 621
e 173 474
e 173 218
e 173 664
e 175 632
e 175 479
e 175 1000
e 175 409
e 176 459
e 176 546
e 176 898
e 177 917
e 177 292
e 177 939
e 177 646
e 178 455
e 178 874
e 178 863
e 178 865
e 179 613
e 179 345
e 180 333
e 180 894
e 180 809
e 180 880
e 181 476
e 181 641
e 181 811
e 181 888
e 181 720
e 181 207
e 181 202
e 182 807
e 182 336
e 182 652
e 182 821
e 182 890
e 183 935
e 183 634
e 183 654
e 183 271
e 184 613
e 184 965
e 184 703
e 184 991
e 185 947
e 185 318
e 185 799
e 185 620
e 187 436
e 187 919
e 187 642
e 187 726
e 188 541
e 188 410
e 188 427
e 188 800
e 188 888
e 188 651
e 189 698
e 189 582
e 189 448
e 189 306
e 189 751
e 192 493
e 192 841
e 193 921
e 193 775
e 193 236
e 193 257
e 193 212
e 193 385
e 194 448
e 194 830
e 196 337
e 196 731
e 196 624
e 196 807
e 197 917
e 197 651
e 197 454
e 198 430
e 201 744
e 201 297
e 201 424
e 202 624
e 202 660
e 202 380
e 202 470
e 203 510
e 203 633
e 204 469
e 204 278
e 204 505
e 205 291
e 205 805
e 205 772
e 205 799
e 205 540
e 206 329
e 206 256
e 206 815
e 206 551
e 207 329
e 207 404
e 208 427
e 208 617
e 208 766
e 210 901
e 210 496
e 210 694
e 210 907
e 212 704
e 212 452
e 212 875
e 212 987
e 212 682
e 213 902
e 213 740
e 213 514
e 213 943
e 214 637
e 214 685
e 214 233
e 215 848
e 215 479
e 215 571
e 216 655
e 216 766
e 216 817
e 218 661
e 218 974
e 218 520
e 218 948
e 219 487
e 219 614
e 219 638
e 221 848
e 221 471
e 221 755
e 221 733
e 221 448
e 222 356
e 222 496
e 222 572
e 223 921
e 223 527
e 223 586
e 223 561
e 224 592
e 224 555
e 224 662
e 224 492
e 225 561
e 225 674
e 225 486
e 225 355
e 225 315
e 225 909
e 225 875
e 225 659
e 226 354
e 226 394
e 226 348
e 226 340
e 226 643
e 226 418
e 227 757
e 227 350
e 227 974
e 228 500
e 228 511
e 228 808
e 229 509
e 229 923
e 230 869
e 230 477
e 231 906
e 231 614
e 231 629
e 231 552
e 233 614
e 233 613
e 233 793
e 233 906
e 234 341
e 234 528
e 235 685
e 235 384
e 235 877
e 236 910
e 236 359
e 236 861
e 237 821
e 237 784
e 237 798
e 241 884
e 241 646
e 242 295
e 242 910
e 242 770
e 242 815
e 242 519
e 242 300
e 243 758
e 243 327
e 243 854
e 243 538
e 243 301
e 243 315
e 245 407
e 245 587
e 245 592
e 246 682
e 246 619
e 246 781
e 246 551
e 246 629
e 249 851
e 249 670
e 249 958
e 250 607
e 250 458
e 250 637
e 250 615
e 250 861
e 250 550
e 250 256
e 251 707
e 251 504
e 252 660
e 252 936
e 253 390
e 253 513
e 253 948
e 255 637
e 255 330
e 255 450
e 255 386
e 255 336
e 256 577
e 256 863
e 256 391
e 256 726
e 256 654
e 257 879
e 257 726
e 257 265
e 258 595
e 258 982
e 258 955
e 258 660
e 258 486
e 258 821
e 258 384
e 259 521
e 259 485
e 263 392
e 263 606
e 263 358
e 263 937
e 265 831
e 265 408
e 266 582
e 266 512
e 266 991
e 266 861
e 267 871
e 267 673
e 267 888
e 267 935
e 269 494
e 269 747
e 269 720
e 269 633
e 269 821
e 270 428
e 270 881
e 271 798
e 271 987
e 271 867
e 273 466
e 273 740
e 273 604
e 274 699
e 274 974
e 276 624
e 276 672
e 276 370
e 276 552
e 277 512
e 277 561
e 277 833
e 277 944
e 278 430
e 278 781
e 278 687
e 278 529
e 278 432
e 278 759
e 279 296
e 279 965
e 279 661
e 279 800
e 280 453
e 280 764
e 280 557
e 281 853
e 281 867
e 281 831
e 283 582
e 283 527
e 283 505
e 284 850
e 284 692
e 284 728
e 284 459
e 284 316
e 286 335
e 286 810
e 286 868
e 286 361
e 286 448
e 286 777
e 287 388
e 287 605
e 287 435
e 287 637
e 290 750
e 290 347
e 290 971
e 290 607
e 291 661
e 292 716
e 292 525
e 293 877
e 293 458
e 293 358
e 293 405
e 295 984
e 296 736
e 296 840
e 296 826
e 296 557
e 296 431
e 297 689
e 297 301
e 297 569
e 297 888
e 298 737
e 298 726
e 298 963
e 299 846
e 299 511
e 299 574
e 299 779
e 299 606
e 299 867
e 299 319
e 300 711
e 300 354
e 301 610
e 302 398
e 302 749
e 305 906
e 305 573
e 305 877
e 305 934
e 306 793
e 306 672
e 307 838
e 307 552
e 307 501
e 308 713
e 308 818
e 308 601
e 310 480
e 310 362
e 311 866
e 311 977
e 311 767
e 311 919
e 313 736
e 313 602
e 314 601
e 314 924
e 314 647
e 315 694
e 316 741
e 316 758
e 316 825
e 316 665
e 316 923
e 316 807
e 317 431
e 317 730
e 317 682
e 317 517
e 318 880
e 318 604
e 318 724
e 319 718
e 319 506
e 319 380
e 320 392
e 320 940
e 320 469
e 322 615
e 322 732
e 322 845
e 322 613
e 322 392
e 325 400
e 325 342
e 325 393
e 327 824
e 327 609
e 329 613
e 330 860
e 331 455
e 331 590
e 331 863
e 331 920
e 332 920
e 332 755
e 332 910
e 333 459
e 333 869
e 334 473
e 334 635
e 334 464
e 334 436
e 334 549
e 334 828
e 335 433
e 335 507
e 336 882
e 336 964
e 337 480
e 337 909
e 338 932
e 338 574
e 338 519
e 338 417
e 338 782
e 339 506
e 339 348
e 339 955
e 339 724
e 340 863
e 341 778
e 341 720
e 341 838
e 341 627
e 341 764
e 342 605
e 342 541
e 342 465
e 342 942
e 342 622
e 343 872
e 343 828
e 343 981
e 343 919
e 344 514
e 345 776
e 345 949
e 347 689
e 347 528
e 348 752
e 348 925
e 349 437
e 350 944
e 350 485
e 350 620
e 352 580
e 352 687
e 352 712
e 352 961
e 354 818
e 354 865
e 355 485
e 355 798
e 356 877
e 358 619
e 358 533
e 358 359
e 359 607
e 359 754
e 360 822
e 360 941
e 360 363
e 360 728
e 361 530
e 361 626
e 361 402
e 362 970
e 362 419
e 362 871
e 363 633
e 363 793
e 363 406
e 364 426
e 364 649
e 364 502
e 364 424
e 364 499
e 365 574
e 365 817
e 365 613
e 365 664
e 367 876
e 367 635
e 367 883
e 367 602
e 369 861
e 369 717
e 370 747
e 370 502
e 372 446
e 372 841
e 372 751
e 373 424
e 373 494
e 373 398
e 373 986
e 374 946
e 374 435
e 374 986
e 374 689
e 374 469
e 375 656
e 375 492
e 375 730
e 376 427
e 376 435
e 376 514
e 376 964
e 376 924
e 378 661
e 378 703
e 378 939
e 378 619
e 380 494
e 380 890
e 380 752
e 384 530
e 384 428
e 385 659
e 385 592
e 386 454
e 386 838
e 386 901
e 387 601
e 388 433
e 390 874
e 390 565
e 391 664
e 392 821
e 392 933
e 392 588
e 393 883
e 393 426
e 393 814
e 393 609
e 393 636
e 393 922
e 393 477
e 394 707
e 395 912
e 395 891
e 395 656
e 396 544
e 396 792
e 396 925
e 397 853
e 397 640
e 397 978
e 398 523
e 399 654
e 399 456
e 399 947
e 400 635
e 400 708
e 400 626
e 402 726
e 402 921
e 402 733
e 403 536
e 403 861
e 403 908
e 404 466
e 404 954
e 404 409
e 405 623
e 405 662
e 406 516
e 406 472
e 406 984
e 407 649
e 407 479
e 408 794
e 408 674
e 409 923
e 409 514
e 410 621
e 410 609
e 411 891
e 411 587
e 411 721
e 411 676
e 411 572
e 415 670
e 415 607
e 416 514
e 416 771
e 416 958
e 416 941
e 417 636
e 417 518
e 417 504
e 418 661
e 418 638
e 419 963
e 419 469
e 420 943
e 420 986
e 420 615
e 420 522
e 421 621
e 421 573
e 421 520
e 423 906
e 423 659
e 423 645
e 423 910
e 423 511
e 423 658
e 424 828
e 424 676
e 425 973
e 425 653
e 425 748
e 425 613
e 426 552
e 426 519
e 426 615
e 426 454
e 427 430
e 427 720
e 427 818
e 428 868
e 428 898
e 428 915
e 428 905
e 429 963
e 429 535
e 430 961
e 430 472
e 430 486
e 430 620
e 431 471
e 431 498
e 431 674
e 432 819
e 432 766
e 432 642
e 432 996
e 432 842
e 433 987
e 435 531
e 436 910
e 436 523
e 436 634
e 437 875
e 437 602
e 437 712
e 437 671
e 441 739
e 441 460
e 441 517
e 442 993
e 442 622
e 442 471
e 444 504
e 444 833
e 446 832
e 446 506
e 446 685
e 448 814
e 448 470
e 448 701
e 448 901
e 448 562
e 448 735
e 450 949
e 450 607
e 452 610
e 452 876
e 453 527
e 454 608
e 454 499
e 455 609
e 455 905
e 455 760
e 455 626
e 456 891
e 456 466
e 456 779
e 457 572
e 457 967
e 457 945
e 458 885
e 458 550
e 458 572
e 458 833
e 458 622
e 459 656
e 459 938
e 460 882
e 460 626
e 462 500
e 462 638
e 462 910
e 464 651
e 464 776
e 465 589
e 465 846
e 465 925
e 465 763
e 466 993
e 466 917
e 467 477
e 467 883
e 467 493
e 469 590
e 469 503
e 470 620
e 470 480
e 471 974
e 471 714
e 471 920
e 472 925
e 472 924
e 475 592
e 475 943
e 475 866
e 477 525
e 478 623
e 478 629
e 479 868
e 479 505
e 479 525
e 479 985
e 483 830
e 483 832
e 485 807
e 485 665
e 485 969
e 485 533
e 486 616
e 486 752
e 487 883
e 491 775
e 491 737
e 492 864
e 492 709
e 494 552
e 496 673
e 496 921
e 496 896
e 496 558
e 497 751
e 497 934
e 497 997
e 498 943
e 498 979
e 499 985
e 499 792
e 500 823
e 500 974
e 501 823
e 501 817
e 502 872
e 503 767
e 503 764
e 505 546
e 505 529
e 505 738
e 506 921
e 507 799
e 507 555
e 508 622
e 508 555
e 509 586
e 509 705
e 510 673
e 511 533
e 511 671
e 511 934
e 512 917
e 513 711
e 513 920
e 513 806
e 516 561
e 516 989
e 517 589
e 517 673
e 517 521
e 518 559
e 518 977
e 518 747
e 519 965
e 519 546
e 520 888
e 521 864
e 521 558
e 522 708
e 522 774
e 523 850
e 523 946
e 525 833
e 527 544
e 527 677
e 527 802
e 529 870
e 529 884
e 529 554
e 530 673
e 530 977
e 530 632
e 531 705
e 531 767
e 533 589
e 533 818
e 535 915
e 535 821
e 535 696
e 535 934
e 536 998
e 536 551
e 536 912
e 536 647
e 538 879
e 538 706
e 540 662
e 540 674
e 540 896
e 544 643
e 544 897
e 544 982
e 545 634
e 545 828
e 546 870
e 546 965
e 546 984
e 546 657
e 546 908
e 547 854
e 547 813
e 549 872
e 550 759
e 550 601
e 551 877
e 551 882
e 552 747
e 552 764
e 554 998
e 554 955
e 555 721
e 556 760
e 557 994
e 557 765
e 558 857
e 558 615
e 558 782
e 558 848
e 559 756
e 559 693
e 559 955
e 561 717
e 561 905
e 561 772
e 561 703
e 562 738
e 562 925
e 562 881
e 562 989
e 565 811
e 565 945
e 567 811
e 567 837
e 567 611
e 567 673
e 570 601
e 570 921
e 570 958
e 571 710
e 572 602
e 572 735
e 573 763
e 575 696
e 575 864
e 575 627
e 576 714
e 576 730
e 577 994
e 577 774
e 580 757
e 580 626
e 580 898
e 580 665
e 581 811
e 581 846
e 583 917
e 583 717
e 583 952
e 586 657
e 587 800
e 588 830
e 588 912
e 590 967
e 595 793
e 595 803
e 595 881
e 596 757
e 596 996
e 598 853
e 598 976
e 600 869
e 600 775
e 601 624
e 601 677
e 601 671
e 602 889
e 603 970
e 603 713
e 603 771
e 603 732
e 604 821
e 605 879
e 605 974
e 606 769
e 607 671
e 607 701
e 607 693
e 608 898
e 608 677
e 609 838
e 609 947
e 610 940
e 611 805
e 612 954
e 612 764
e 614 917
e 614 879
e 614 735
e 615 858
e 616 891
e 616 651
e 616 748
e 617 935
e 617 877
e 617 991
e 617 712
e 619 840
e 619 945
e 619 948
e 619 757
e 619 857
e 619 647
e 619 682
e 620 679
e 620 919
e 621 626
e 621 703
e 621 704
e 621 715
e 622 623
e 622 643
e 623 963
e 624 810
e 624 873
e 624 890
e 624 784
e 626 653
e 626 997
e 630 963
e 630 635
e 630 895
e 632 848
e 632 749
e 633 935
e 634 1000
e 635 913
e 635 669
e 635 877
e 635 932
e 636 943
e 636 819
e 636 877
e 636 673
e 637 802
e 639 920
e 639 894
e 639 954
e 640 738
e 640 648
e 640 907
e 640 867
e 640 760
e 641 674
e 641 711
e 641 881
e 641 705
e 643 715
e 643 775
e 643 981
e 645 876
e 645 674
e 645 811
e 646 770
e 646 772
e 646 982
e 647 807
e 647 865
e 648 731
e 648 794
e 649 708
e 649 882
e 649 826
e 650 945
e 650 655
e 651 767
e 652 669
e 652 842
e 653 875
e 653 716
e 653 891
e 654 720
e 655 933
e 655 879
e 656 924
e 657 713
e 658 906
e 658 868
e 658 737
e 658 949
e 659 931
e 661 908
e 661 944
e 662 833
e 664 865
e 664 811
e 669 714
e 670 721
e 671 922
e 671 672
e 671 719
e 672 998
e 673 901
e 673 837
e 676 872
e 677 993
e 677 767
e 679 687
e 680 898
e 680 965
e 680 986
e 682 923
e 685 713
e 687 872
e 692 880
e 693 726
e 694 981
e 694 888
e 696 982
e 698 912
e 698 750
e 699 941
e 699 752
e 701 965
e 703 894
e 704 940
e 705 722
e 705 851
e 706 870
e 706 907
e 708 954
e 710 919
e 710 748
e 710 881
e 711 842
e 712 976
e 712 967
e 713 974
e 718 909
e 719 873
e 720 870
e 721 958
e 722 982
e 724 750
e 726 760
e 726 730
e 726 891
e 726 926
e 726 975
e 728 869
e 728 828
e 728 942
e 730 860
e 730 772
e 733 869
e 733 926
e 733 994
e 733 769
e 733 873
e 735 764
e 737 744
e 737 902
e 738 943
e 739 750
e 739 885
e 740 969
e 741 782
e 741 990
e 741 833
e 744 829
e 744 809
e 745 772
e 745 922
e 745 765
e 746 909
e 746 975
e 746 851
e 746 970
e 746 915
e 747 946
e 749 775
e 749 755
e 750 776
e 750 958
e 751 850
e 752 824
e 752 860
e 756 883
e 756 842
e 758 985
e 763 870
e 764 920
e 764 800
e 764 845
e 765 963
e 766 975
e 766 910
e 766 846
e 768 841
e 769 775
e 769 955
e 770 784
e 771 808
e 771 935
e 772 798
e 775 941
e 777 811
e 777 955
e 778 915
e 778 905
e 781 846
e 782 863
e 782 858
e 784 898
e 792 813
e 793 994
e 793 906
e 794 909
e 796 851
e 796 807
e 798 837
e 799 894
e 801 882
e 803 961
e 805 968
e 805 874
e 806 938
e 806 965
e 807 952
e 809 948
e 809 923
e 809 872
e 809 840
e 810 857
e 811 853
e 812 823
e 814 833
e 817 848
e 819 876
e 819 880
e 822 990
e 822 949
e 822 977
e 824 967
e 825 827
e 826 941
e 827 990
e 827 909
e 827 871
e 827 857
e 828 879
e 829 910
e 832 901
e 832 902
e 838 894
e 841 883
e 842 973
e 845 898
e 846 986
e 848 905
e 850 917
e 850 947
e 853 937
e 853 873
e 854 884
e 858 890
e 860 992
e 865 993
e 866 868
e 867 969
e 868 885
e 868 898
e 869 922
e 869 907
e 873 902
e 875 921
e 881 953
e 885 896
e 889 1000
e 891 1000
e 891 943
e 894 941
e 895 971
e 896 998
e 897 976
e 898 1000
e 905 978
e 906 975
e 922 968
e 924 976
e 931 953
e 933 976
e 935 979
e 936 998
e 936 949
e 938 982
e 939 964
e 945 982
e 965 968
e 967 977
e 967 989
e 970 1000
e 971 987
e 978 1000
